
Gurobi 11.0.3 (linux64) logging started Tue 19 Nov 2024 01:31:18 AM CST

Set parameter LogFile to value "/home/dlcole3/graph_abstraction/hierarchical_graphs/git_storage/CS1/HP_low_reserves/gurobi_logs/serial/logfile_ST30_4.log"

Gurobi 11.0.3 (linux64) logging started Tue 19 Nov 2024 01:33:25 AM CST

Set parameter LogFile to value "/home/dlcole3/graph_abstraction/hierarchical_graphs/git_storage/CS1/HP_low_reserves/gurobi_logs/serial/logfile_ST30_4.log"
Gurobi Optimizer version 11.0.3 build v11.0.3rc0 (linux64 - "Ubuntu 18.04.3 LTS")

CPU model: Intel(R) Xeon(R) CPU E5-2698 v4 @ 2.20GHz, instruction set [SSE2|AVX|AVX2]
Thread count: 40 physical cores, 80 logical processors, using up to 20 threads

Optimize a model with 29168 rows, 50688 columns and 136175 nonzeros
Model fingerprint: 0x58bac543
Variable types: 46944 continuous, 3744 integer (3744 binary)
Coefficient statistics:
  Matrix range     [6e-01, 2e+04]
  Objective range  [2e+00, 2e+04]
  Bounds range     [5e-02, 2e+05]
  RHS range        [3e-03, 7e+03]
Presolve removed 14325 rows and 38651 columns
Presolve time: 0.36s
Presolved: 14843 rows, 12037 columns, 63375 nonzeros
Variable types: 9040 continuous, 2997 integer (2997 binary)
Found heuristic solution: objective 3300773.8646
Found heuristic solution: objective 3029910.6448

Root relaxation: objective 1.144714e+05, 8027 iterations, 0.47 seconds (0.40 work units)

    Nodes    |    Current Node    |     Objective Bounds      |     Work
 Expl Unexpl |  Obj  Depth IntInf | Incumbent    BestBd   Gap | It/Node Time

     0     0 114471.449    0   48 3029910.64 114471.449  96.2%     -    1s
     0     0 114471.449    0   48 3029910.64 114471.449  96.2%     -    2s
H    0     0                    154254.19196 114471.449  25.8%     -    2s
     0     2 114471.449    0   48 154254.192 114471.449  25.8%     -    2s
H   31    52                    153961.09304 114484.457  25.6%   174    3s
H   34    52                    119424.28349 114484.457  4.14%   164    3s
H   48    52                    117231.23697 114484.457  2.34%   162    3s
H  139   106                    117187.42689 114484.457  2.31%   106    4s
H  169   116                    117130.99920 114484.457  2.26%  97.9    4s
H  170   116                    115589.58157 114484.457  0.96%  98.7    4s
H  183   116                    115589.20657 114484.457  0.96%  95.2    4s
   443   180 115175.053   20   37 115589.207 114596.168  0.86%  58.1    5s
H  471   180                    115225.97635 114596.168  0.55%  55.5    5s
H  654   262                    115222.75557 114596.168  0.54%  42.5    5s
H  917   495                    115220.79466 114596.168  0.54%  32.6    5s
H 1019   561                    115208.01998 114596.168  0.53%  29.9    5s
H 1020   561                    115206.49352 114596.168  0.53%  29.9    5s
* 1116   605              53    115206.12987 114596.168  0.53%  28.3    5s

Explored 1488 nodes (43054 simplex iterations) in 6.10 seconds (5.15 work units)
Thread count was 20 (of 80 available processors)

Solution count 10: 115206 115206 115221 ... 117231

Optimal solution found (tolerance 3.00e-03)
Best objective 1.152061298698e+05, best bound 1.148852914182e+05, gap 0.2785%

User-callback calls 4705, time in user-callback 0.00 sec
